\ENCODING=ISO-8859-1
\Problem name: IloCplex

Minimize
 obj1: X_1 + X_2 + X_3 + X_4 + X_5 + X_6 + X_7 + X_8 + X_9 + X_10 + X_11 + X_12
       + X_13 + X_14 + X_15 + X_16 + X_17 + X_18 + X_19 + X_20 + X_21 + X_22
       + X_23 + X_24 + X_25 + X_26 + X_27 + X_28 + X_29 + X_30 + X_31 + X_32
       + X_33 + X_34 + X_35 + X_36 + X_37 + X_38 + X_39 + X_40 + X_41 + X_42
       + X_43 + X_44 + X_45 + X_46 + X_47 + X_48 + X_49 + X_50 + X_51 + X_52
       + X_53 + X_54 + X_55 + X_56
Subject To
 c1:  3 X_1 + X_24 + X_26 + 2 X_28 + X_36 + X_38 + 2 X_42 + X_43 >= 2
 c2:  2 X_2 + X_32 + X_33 + X_35 + X_38 + 2 X_51 + X_52 >= 1
 c3:  2 X_3 + X_23 + X_31 + X_37 >= 1
 c4:  2 X_4 + X_20 + X_21 + X_22 + X_42 + X_45 + X_55 >= 2
 c5:  X_5 + X_25 + X_26 + X_45 >= 1
 c6:  X_6 + X_22 + X_54 >= 1
 c7:  3 X_7 + X_18 + X_19 + 3 X_27 + X_31 + X_37 + X_38 + 3 X_46 + X_50
      + 2 X_52 + X_53 + X_54 >= 2
 c8:  4 X_8 + X_32 + X_33 + X_34 + 3 X_36 + X_46 + 4 X_48 >= 1
 c9:  3 X_9 + X_33 + X_37 + X_39 + 3 X_44 >= 1
 c10: 4 X_10 + X_18 + X_27 + 2 X_28 + X_29 + 2 X_30 + X_53 >= 1
 c11: X_11 + X_18 + X_23 + X_35 + X_40 + X_53 >= 1
 c12: 5 X_12 + X_19 + 2 X_25 + X_29 + X_34 + X_40 + X_50 >= 1
 c13: 3 X_13 + X_31 + X_32 + X_40 + 3 X_49 + X_56 >= 1
 c14: X_14 + X_19 + X_30 + X_50 >= 1
 c15: X_15 + X_21 + X_29 + X_34 + X_43 + X_47 + X_55 + X_56 >= 1
 c16: X_16 + X_20 + X_24 + X_39 + X_41 >= 1
 c17: 3 X_17 + X_41 + X_47 >= 1
Bounds
      X_1 = 1
      X_2 = 1
      X_8 = 1
      X_9 = 1
      X_13 = 0
      X_18 = 0
      X_19 = 7.17464813734306e-43
      X_21 = -1.3493134523855e-27
      X_23 = -1
End
